sat
(:added-eqs           321
 :arith-eq-adapter    28
 :arith-diseq         4
 :arith-fixed-eqs     16
 :arith-lower         30
 :arith-make-feasible 24
 :arith-max-columns   32
 :arith-max-rows      16
 :arith-upper         32
 :binary-propagations 29
 :conflicts           4
 :decisions           34
 :del-clause          5
 :final-checks        3
 :max-memory          18.08
 :memory              17.51
 :mk-bool-var         215
 :mk-clause           25
 :mk-clause-binary    31
 :num-allocs          82286
 :num-checks          2
 :propagations        39
 :rlimit-count        2520
 :seq-add-axiom       67
 :seq-char2bit        3
 :seq-fixed-length    2
 :seq-num-reductions  29
 :time                0.00
 :total-time          0.01)
